
(set-logic ALL) 

(declare-datatype MyList ((Nil) (Cons (head Real) (tail MyList)) )) 
(declare-fun l0 () MyList) 
(declare-fun l1 () MyList) 
(declare-fun l2 () MyList) 
(declare-fun l3 () MyList) 
(declare-fun i0 () Real) 
(declare-fun i1 () Real) 
(assert (not (is-Nil Nil)) )
(assert (and (= l0 l3) (= l3 Nil) (= l0 l2) (= l3 Nil)) )
(assert (and (is-Cons Nil) (is-Nil Nil)) )
(assert (is-Cons Nil) )
(assert (and (is-Nil l1) (is-Cons Nil) (is-Cons Nil) (is-Cons Nil)) )
(assert (or (is-Cons Nil) (= l3 Nil) (= l2 Nil)) )
(assert (is-Cons Nil) )
(assert (is-Nil Nil) )
(check-sat)
